

1

1

1

2

1

1

1

1

1

1

1

1

1

1

1

1

1

1

1

1

1

1

1

1

1

1

1

1

1

1

1

1

1

1

1

1

1

1

1

1

1

1

1

1

1

1

1

1

1

1

1

1

1

1

1

1

1

1

1

1

1

1

1

1

1

1

1

1

1

1

1

1

1

1

1

1

1

1

1

1

1

1

1

1

1

1

1

1

1

1

1

1

1

1

1

1

1

1

1

1

1

1

1

1

1

1

1

1

1

1

1

1

1

1

1

1

1

1

1

1

1

1

1

1

1

1

1

1

1

1

1

1

1

1

1

1

1

1

1

1

1

1

1

1

1

1

1

1

1

1

1

1

1

1

1

1

1

1

1

1

1

1

1

1

1

1

1

1

1

1

1

1

1

1

1

1

1

1

1

1

1

1

1

2

1

1

1

1

1

1

1

1

1

1

1

1

1

1

1

1

1

1

1

1

1

1

1

1

1

1

1

1

1

1

1

1

1

1

1

1

1

1

1

1

1

1

1

1

1

1

1

1

1

1

1

1

1

1

1

1

22

1

1

1

1

1

1

1

1

1

1

1

1

1

1

1

1

1

1

1

1

1

1

1

1

1

1

1

1

1

1

1

1

1

1

1

1

1

1

1

1

1

1

1

1

1

1

1

1

1

1

1

1

1

1

1

1

1

1

1

1

1

1

1

1

1

1

1

1

1

1

1

1

1

1

1

1

1

1

1

1

1

6

3

1

1

1

1

1

1

1

1

1

1

1

1

1

1

1

1

2

1

1

1

1

1

1

1

1

1

1

1

1

1

1

1

1

1

1

1

1

1

4

5

1

1

1

3

1

1

1

1

1

1

1

1

1

1

1

4967

1

1

1

1

1

1

1

1

1

1

1

1

1

2

1

1

1

1

1

45

1

9

2

1

1

1

1

1

1

1

1

5

1

1

1

1

1

1

1

1

1

1

1

1

1

1

1

1

1

2

1

1

1

1

1

1

1

1

1

1

4

2

5

1

4

1

1

1

1

1

1

1

1

2

26

1

1

1

1

1

1

1

1

1

7

1

1

1

1

1

1

1

1

1

2

1

1

1

1

1

1

1

2

3

1

1

3

1

1

1

5

1

1

1

3

1

1

1

1

1

1

1

1

1

2

1

1

1

1

1

1

1

1

1

1

1

1

1

1

1

1

3

1

1

1

2

1

1

1

1

1

1

1

1

1

1

1

1

1

1

1

1

1

1

1

1

1

1

1

1

1

1

1

1

1

1

1

3

2

1

7

5

1

10

1

1

1

1

1

3

1

1

1

1

1

1

1

1

1

1

1

1

1

1

1

1

1

1

1

2

1

1

1

1

1

20

1

1

1

1

1

1

1

1

3

1

1

61

1

1

1

1

1

1

1

1

1

4

63

1

1

1

1

1

1

1

1

1

1

1

1

1

1

1

1

1

1

1

1

2

1

6

1

2

1

1

2

14

34

1

1

138

1

1

1

1

1

16

34

21

6

1

1

1

1

1

1

1

1

1

1

1

2

1

1

1

1

1

1

1

3

1

4

15

1

1

4

1

1

1

1

1

1

1

1

3

1

1

2

1

2

1

1

1

1

1

1

1

1

1

4

1

1

1

1

1

1

1

1

1

6

4

6

1

2

1

1

16

1

4

1

1

1

4

1

1

1

1

1

1

1

1

1

4

1

1

1

3

1

1

1

2

1

1

1

1

1

1

1

1

1

1

4

9

1

1

1

1

1

3

1

1

1

1

1

1

3

1

2

1

1

1

1

1

1

1

1

1

1

1

1

2

1

1

1

1

1

1

1

1

1

4

2

7

6

1

14

4

2

1

1

1

1

1

1

1

1

1

1

1

1

1

1

2

1

4

4

1

1

1

1

1

1

4

1

2

1

2

1

10

1

10

385

1

1

2

1

4

1

1

1

3

1

1

102

1

6

1

1

1

1

1

18

1

1

1

23

1

1

1

2

1

1

2

1

2

1

1

1

2

3

2

2

1

9

2

1

1

1

1

1

2

16

1

1

1

1

1

1

1

1

1

1

1

1

1

1

1

1

1

1

1

1

3

1

13

4

3

1

1

6

3

1

1

1

1

2

3

1

1

1

1

1

6

2

1

1

2

1

1

2

2

4

1

1

2

2

1

2

1

1

1

1

1

1

1

1

1

1

1

1

1

2

1

1

1

1

1

6

7

1

4

1

1

1

1

1

1

1

1

1

1

1

1

1

1

1

1

7

1

1

8

2

1

1

1

8

2

1

2

1

1

51

1

4

1

1

1

3

3

9

1

1

1

1

1

1

1

2

4

1

1

1

1

1

1

21

1

1

1

1

2

1

1

1

1

17

1

1

3

1

1

1

1

1

1

1

4

1

1

3

1

1

1

1

1

1

2

1

1

1

1

1

1

1

1

1

1

1

1

1

1

1

1

1

1

10

1

1

1

1

1

1

1

1

1

1

1

1

1

3

1

1

1

1

1

1

1

1

1

1

1

1

1

1

1

1

1

1

14

6

2

1

1

1

1

1

1

1

1

1

1

1

1

1

1

1

1

1

6

2

1

1

1

1

1

1

7

8

1

1

4

1

3

1

1

1

1

1

1

4

1

1

1

1

1

1

1

1

1

1

1

1

1

1

1

1

1

2

1

1

1

1

1

1

1

1

1

1

1

1

1

1

1

1

1

1

1

1

1

1

1

1

1

1

1

3

2

1

2

1

1

1

1

1

1

4

13

1

1

1

1

1

1

1

1

1

1

1

1

1

1

1

1

1

1

1

1

1

1

1

1

1

1

1

1

1

1

1

2

1

1

1

1

1

1

5

1

1

3

1

1

1

1

2

1

229

1

1

1

1

1

1

1

1

1

1

1

11

1

1

1

1

1

1

1

1

1

33

2

1

1

1

1

1

1

1

1

10

1

1

1

1

1

1

1

1

1

1

1

1

3

1

1

1

1

1

1

1

3

1

1

1

1

1

1

1

1

4

1

1

1

1

1

1

1

1

3

1

8

1

1

1

1

1

1

1

1

1

1

1

6

1

2

1

1

9

1

1

1

1

1

1

1

1

1

1

1

216

1

1

1

1

1

1

1

1

1

1

1

1

1

1

1

1

12

1

1

1

1

1

1

1

1

1

1

1

8

1

1

1

1

1

1

1

1

1

1

1

1

1

1

1

1

1

1

1

2

1

1

1

1

1

1

1

1

1

1

1

1

1

1

1

1

1

1

34

1

6

2

1

1

1

1

1

1

1

1

1

12

1

1

1

1

1

1

1

1

1

1

1

1

1

1

1

1

1

1

1

1

1

1

1

1

1

1

1

1

1

1

1

1

1

7

1

1

1

1

1

1

1

1

1

1

1

1

1

1

1

1

1

1

1

1

1

1

1

1

1

1

1

1

1

2

1

1

1

1

1

4

1

1

1

1

2

1

1

1

1

1

1

1

1

1

1

1

1

1

1

1

1

1

1

1

1

1

1

1

1

1

12

1

1

4

1

1

1

2

1

1

1

1

1

1

1

1

1

1

2

1

1

1

1

1

1

1

1

1

1

3

1

1

1

1

1

1

1

1

1

1

1

1

1

1

2

1

1

1

1

1

1

1

1

1

1

15

1

1

1

1

